p cnf 24 24
x T 10 1 4 7 0
x T 11 2 5 8 0
x T 12 3 6 9 0
x T 13 .2 1 4 .2 1 7 .2 4 7 0
x T 14 .2 1 5 .2 2 4 .2 1 8 .2 2 7 .2 4 8 .2 5 7 0
x T 15 .2 1 6 .2 2 5 .2 3 4 .2 1 9 .2 2 8 .2 3 7 .2 4 9 .2 5 8 .2 6 7 0
x T 16 .2 2 6 .2 3 5 .2 2 9 .2 3 8 .2 5 9 .2 6 8 0
x T 17 .2 3 6 .2 3 9 .2 6 9 0
x T 18 .3 1 4 7 0
x T 19 .3 1 4 8 .3 1 5 7 .3 2 4 7 0
x T 20 .3 1 4 9 .3 1 5 8 .3 1 6 7 .3 2 4 8 .3 2 5 7 .3 3 4 7 0
x T 21 .3 1 5 9 .3 1 6 8 .3 2 4 9 .3 2 5 8 .3 2 6 7 .3 3 4 8 .3 3 5 7 0
x T 22 .3 1 6 9 .3 2 5 9 .3 2 6 8 .3 3 4 9 .3 3 5 8 .3 3 6 7 0
x T 23 .3 2 6 9 .3 3 5 9 .3 3 6 8 0
x T 24 .3 3 6 9 0
x T 10 15 16 17 18 21 22 23 .2 10 18 .2 10 19 .2 10 20 .2 10 23 .2 10 24 .2 11 18 .2 11 19 .2 11 21 .2 11 22 .2 12 18 .2 12 19 .2 12 20 .2 12 23 .2 12 24 .2 13 19 .2 13 24 .2 14 22 .2 14 23 .2 15 20 .2 15 21 .2 15 24 .2 16 18 .2 16 19 .2 16 22 .2 16 23 .2 16 24 .2 17 20 .2 17 21 .2 17 22 .2 18 21 .2 18 23 .2 19 20 .2 19 21 .2 19 24 .2 20 24 .2 21 23 .2 21 24 .2 23 24 0
x T 13 14 15 .2 10 18 .2 10 19 .2 10 20 .2 10 23 .2 10 24 .2 11 18 .2 11 19 .2 11 23 .2 12 18 .2 12 20 .2 13 20 .2 14 18 .2 14 23 .2 14 24 .2 15 21 .2 15 22 .2 16 19 .2 16 20 .2 16 23 .2 16 24 .2 17 18 .2 17 21 .2 17 22 .2 17 23 .2 18 21 .2 18 23 .2 18 24 .2 19 21 .2 19 22 .2 19 23 .2 19 24 .2 20 21 .2 20 22 .2 21 22 .2 21 23 .2 21 24 .2 22 24 .2 23 24 0
x 15 20 22 .2 10 18 .2 10 20 .2 10 21 .2 11 18 .2 11 19 .2 11 20 .2 11 23 .2 11 24 .2 12 18 .2 12 19 .2 12 21 .2 12 22 .2 13 18 .2 13 21 .2 14 19 .2 14 24 .2 15 22 .2 15 23 .2 16 20 .2 16 21 .2 16 24 .2 17 18 .2 17 19 .2 17 22 .2 17 23 .2 17 24 .2 18 19 .2 18 22 .2 19 21 .2 19 24 .2 20 22 .2 20 24 .2 21 22 .2 21 23 .2 21 24 .2 22 23 .2 23 24 0
x T 13 15 18 23 .2 10 19 .2 10 21 .2 10 24 .2 11 18 .2 11 19 .2 11 20 .2 11 23 .2 11 24 .2 12 18 .2 12 19 .2 12 23 .2 13 19 .2 13 22 .2 14 20 .2 15 18 .2 15 23 .2 15 24 .2 16 21 .2 16 22 .2 17 19 .2 17 20 .2 17 23 .2 17 24 .2 18 20 .2 18 22 .2 18 24 .2 19 22 .2 19 24 .2 20 21 .2 20 22 .2 22 24 0
x 11 14 15 17 18 20 21 24 .2 10 18 .2 10 19 .2 10 20 .2 10 22 .2 10 23 .2 10 24 .2 11 19 .2 11 20 .2 11 22 .2 13 19 .2 13 20 .2 13 23 .2 13 24 .2 14 18 .2 14 21 .2 14 22 .2 14 23 .2 15 19 .2 15 20 .2 15 21 .2 16 18 .2 16 19 .2 16 24 .2 17 22 .2 17 24 .2 18 19 .2 18 20 .2 19 20 .2 19 21 .2 19 22 .2 20 22 .2 20 23 .2 21 22 .2 21 24 .2 22 23 .2 22 24 .2 23 24 0
x T 15 16 17 18 20 21 24 .2 10 18 .2 10 19 .2 10 20 .2 10 23 .2 10 24 .2 11 18 .2 11 21 .2 11 23 .2 11 24 .2 12 19 .2 12 23 .2 12 24 .2 13 20 .2 13 21 .2 13 24 .2 14 18 .2 14 19 .2 14 22 .2 14 23 .2 14 24 .2 15 20 .2 15 21 .2 15 22 .2 16 18 .2 16 19 .2 16 20 .2 17 18 .2 17 23 .2 18 20 .2 18 22 .2 18 24 .2 19 20 .2 19 21 .2 19 22 .2 19 24 .2 20 21 .2 21 22 .2 21 24 .2 22 23 0
x 13 16 19 20 23 .2 10 18 .2 10 20 .2 11 18 .2 11 19 .2 11 20 .2 11 22 .2 11 23 .2 11 24 .2 12 19 .2 12 20 .2 12 22 .2 13 21 .2 13 22 .2 14 19 .2 14 20 .2 14 23 .2 14 24 .2 15 18 .2 15 21 .2 15 22 .2 15 23 .2 16 19 .2 16 20 .2 16 21 .2 17 18 .2 17 19 .2 17 24 .2 18 19 .2 18 20 .2 18 23 .2 18 24 .2 19 23 .2 19 24 .2 20 22 .2 20 23 .2 20 24 .2 21 24 .2 22 23 .2 23 24 0
x T 14 15 18 21 .2 10 18 .2 10 19 .2 10 21 .2 10 22 .2 11 18 .2 11 19 .2 11 20 .2 11 23 .2 11 24 .2 12 18 .2 12 21 .2 12 23 .2 12 24 .2 13 22 .2 13 23 .2 14 20 .2 14 21 .2 14 24 .2 15 18 .2 15 19 .2 15 22 .2 15 23 .2 15 24 .2 16 20 .2 16 21 .2 16 22 .2 17 18 .2 17 19 .2 17 20 .2 18 20 .2 18 21 .2 18 22 .2 18 23 .2 18 24 .2 19 20 .2 19 21 .2 20 21 .2 20 22 .2 20 23 .2 21 23 .2 21 24 .2 22 23 .2 23 24 0
x 12 13 14 15 17 18 20 22 24 .2 10 18 .2 10 19 .2 10 23 .2 11 18 .2 11 20 .2 12 18 .2 12 19 .2 12 20 .2 12 22 .2 12 23 .2 12 24 .2 13 18 .2 13 23 .2 13 24 .2 14 21 .2 14 22 .2 15 19 .2 15 20 .2 15 23 .2 15 24 .2 16 18 .2 16 21 .2 16 22 .2 16 23 .2 17 19 .2 17 20 .2 17 21 .2 18 20 .2 18 23 .2 18 24 .2 19 21 .2 19 23 .2 20 21 .2 20 22 .2 20 23 .2 21 22 .2 22 23 .2 23 24 0
